c ren 1 -> 1
c ren 2 -> 2
c ren 3 -> 3
c ren 4 -> 4
c ren 5 -> 5
c ren 6 -> 6
c ren 7 -> 7
c ren 8 -> 8
c ren 9 -> 9
c ren 10 -> 10
c ren 11 -> 11
c ren 12 -> 12
c ren 13 -> 13
c ren 14 -> 14
c ren 18 -> 15
c ren 19 -> 16
c ren 20 -> 17
c ren 21 -> 18
c ren 22 -> 19
c ren 23 -> 20
c ren 24 -> 21
c ren 25 -> 22
c ren 35 -> 23
c ren 37 -> 24
c ren 57 -> 25
p cnf 25 121
a 1 2 3 4 5 6 7 8 9 10 11 12 13 14 15 16 17 18 0
d 19 5 15 0
d 20 8 17 0
d 21 6 16 0
d 22 14 18 0
e 23 24 25 0
-1 15 23 0
-1 13 14 25 0
1 2 3 4 5 6 -8 21 25 0
-2 15 23 0
-3 15 23 0
-1 -7 -21 25 0
-4 -15 -23 0
1 2 3 4 5 -6 19 25 0
-2 -9 -20 25 0
1 2 3 4 5 6 -7 21 25 0
-4 -6 -19 25 0
-4 -7 -21 25 0
1 2 3 4 5 6 7 8 -12 20 25 0
-16 -19 24 0
16 19 24 0
-16 19 -24 0
16 -19 -24 0
24 25 0
7 -13 -17 18 -21 -23 -24 -25 0
-3 -22 25 0
-7 -11 17 18 -23 -24 -25 0
-5 -8 -21 25 0
-10 17 18 21 -23 -24 -25 0
7 9 10 11 12 13 -17 -18 -20 -21 -23 -24 -25 0
7 -11 -17 18 -21 -23 -24 -25 0
7 -9 -17 18 -21 -23 -24 -25 0
7 -10 -17 18 -21 -23 -24 -25 0
7 -17 18 20 -21 -23 -24 -25 0
-12 17 18 21 -23 -24 -25 0
-13 17 18 21 -23 -24 -25 0
-4 -12 -20 25 0
-3 -9 -20 25 0
-8 -11 -20 25 0
23 25 0
17 18 20 21 -23 -24 -25 0
-6 -12 -20 25 0
-3 -12 -20 25 0
-3 -11 -20 25 0
-7 13 14 25 0
-3 -8 -21 25 0
-1 -6 -19 25 0
-2 13 14 25 0
-2 -22 25 0
-1 -22 25 0
-4 15 23 0
-1 -10 -20 25 0
-2 -8 -21 25 0
-1 -15 -23 0
-3 -15 -23 0
1 2 3 4 15 -23 0
-4 -11 -20 25 0
1 2 3 4 -15 23 0
-5 -6 -19 25 0
-3 -7 -21 25 0
1 2 3 4 5 6 7 8 9 10 11 12 -13 25 0
-8 -10 -20 25 0
-5 -7 -21 25 0
-5 -12 -20 25 0
-7 -11 -20 25 0
-2 -12 -20 25 0
-4 -10 -20 25 0
-6 -8 -21 25 0
1 2 3 4 5 6 7 8 -9 20 25 0
-6 -7 -21 25 0
-6 -9 -20 25 0
1 2 3 4 5 6 7 8 -10 20 25 0
-2 -10 -20 25 0
7 -12 -17 18 -21 -23 -24 -25 0
-3 -10 -20 25 0
-5 -22 25 0
-7 -13 17 18 -23 -24 -25 0
-7 -12 -20 25 0
-7 -10 17 18 -23 -24 -25 0
-5 -10 -20 25 0
-6 -10 -20 25 0
-11 17 18 21 -23 -24 -25 0
9 10 11 12 13 17 -18 -20 21 -23 -24 -25 0
-6 -22 25 0
-7 -9 -20 25 0
-12 13 25 0
-9 17 18 21 -23 -24 -25 0
-4 13 14 25 0
-5 -9 -20 25 0
-2 -11 -20 25 0
-4 -9 -20 25 0
-8 -9 -20 25 0
-5 -11 -20 25 0
-7 -22 25 0
-7 9 10 11 12 13 17 -18 -20 -23 -24 -25 0
-7 -10 -20 25 0
-7 -12 17 18 -23 -24 -25 0
-8 -12 -20 25 0
-11 13 25 0
-8 13 14 25 0
-4 -8 -21 25 0
1 2 3 4 5 6 7 8 13 -14 22 25 0
-6 -11 -20 25 0
13 20 25 0
-8 -22 25 0
-9 13 25 0
-3 -6 -19 25 0
-1 -12 -20 25 0
-7 -9 17 18 -23 -24 -25 0
1 2 3 4 5 6 7 8 -11 20 25 0
-1 -8 -21 25 0
-10 13 25 0
-10 -22 25 0
-11 -22 25 0
-1 -11 -20 25 0
-5 13 14 25 0
-9 -22 25 0
-7 17 18 20 -23 -24 -25 0
-3 13 14 25 0
-1 -9 -20 25 0
-2 -7 -21 25 0
-12 -22 25 0
-2 -15 -23 0
-4 -22 25 0
-6 13 14 25 0
-13 -22 25 0
-2 -6 -19 25 0
